(set-logic LIA)
(synth-fun next ((brake Int) (distance Int) (speed Int) (throttle Int) (ignition Bool) (time Int) ) Int
	((Start Int) (Var Int) (StartBool Bool))
	((Start Int (
				 5
				 6
				 7
				 (ite StartBool Start Start)))

	(Var Int (
			 0
			 1
			 2
			 4
			 6
			 16
			 970
			 985
			 brake
			 distance
			 speed
			 throttle
			 time
			 (+ Var Var)						
			 (- Var Var)						
			 (* Var Var)))

	(StartBool Bool (
				 	 ignition
					(= Var Var)						
					(>= Var Var)						
					(<= Var Var)						
					(and StartBool StartBool)			
					(or  StartBool StartBool)				
					(not StartBool)))))

(constraint (= (next 0 3 21 1 true 1740 ) 5))
(constraint (= (next 0 3 21 1 true 136 ) 7))
(constraint (= (next 1 4 9 0 true 1901 ) 6))
(constraint (= (next 0 4 12 5 true 101 ) 6))

(check-synth)
